TERM = { '.', 's(5)', 's(2)', 's(4)', 'in_1', 'local_0', 's(6)', 's(1)', 's(0)', 's(7)', 's(3)', 'in_0'};
null = '.';
s = 12;
n = 8;
ndeps = 3;
max_registers_sz = 4;
NR = 1;
registers = [|'local_0', 's(3)'|];
dependencies = [|'i32.load8_u_2', 'i32.store16_11', |'i32.load_5', 'i32.store16_11', |'i32.load16_s_10', 'i32.store16_11'|];
GET_ENUM = { GET1, GET2, GET3, GET4, GET5};
SET_ENUM = { SET1, SET2, SET3, SET4, SET5};
TEE_ENUM = { TEE1, TEE2, TEE3, TEE4, TEE5};
N = 9;
OP = { 'i32.load8_u_2', 'i32.const_0', 'i32.load_5', 'i32.const_1', 'i32.load16_s_10', 'i32.add_0', 'i32.store16_11', 'i32.const_2', 'i32.add_1' };
in_ops = [1, 0, 1, 0, 1, 2, 2, 0, 2 ];
out_ops = [1, 1, 1, 1, 1, 1, 0, 1, 1 ];
in1 = ['in_0', '.', 's(5)', '.', 's(6)', 's(0)', 's(4)', '.', 's(7)' ];
in2 = ['.', '.', '.', '.', '.', 'in_1', 's(1)', '.', 's(2)' ];
in3 = ['.', '.', '.', '.', '.', '.', '.', '.', '.' ];
out1 = ['s(0)', 's(5)', 's(2)', 's(6)', 's(4)', 's(1)', '.', 's(7)', 's(3)' ];
out2 = ['.', '.', '.', '.', '.', '.', '.', '.', '.' ];
out3 = ['.', '.', '.', '.', '.', '.', '.', '.', '.' ];
comm = [false, false, false, false, false, true, false, false, true ];
gas = [1, 1, 1, 1, 1, 1, 1, 1, 1 ];
sz = [1, 1, 1, 1, 1, 1, 1, 1, 1 ];
stor = [false, false, false, false, false, false, true, false, false ];
lb = [ 1, 1, 1, 1, 1, 1, 1, 1, 1 ];
ub = [ 12, 12, 12, 12, 12, 12, 12, 12, 12 ];
startstack = [ 'in_0', 'in_1', null, null, null, null, null, null ];
endstack = [ null, null, null, null, null, null, null, null ];
